\ENCODING=ISO-8859-1
\Problem name: IloCplex

Maximize
 obj1: 0.333333343267441 x1 + 0.416666656732559 x2 + 0.416666656732559 x3
       + 0.333333343267441 x4 + 0.666666686534882 x5 + 0.666666686534882 x6
       + 0.25 x7 + 0.222222223877907 x8 + 0.333333343267441 x9
       + 0.16666667163372 x10 + 0.583333313465118 x11 + 0.0833333358168602 x12
       + 0.333333343267441 x13 + 0.666666686534882 x14 + 0.666666686534882 x15
       + 0.666666686534882 x16 + 0.333333343267441 x17
Subject To
 c1: 42 x1 + 69 x2 + 67 x3 + 57 x4 + 93 x5 + 90 x6 + 38 x7 + 36 x8 + 45 x9
     + 33 x10 + 79 x11 + 27 x12 + 44 x13 + 84 x14 + 86 x15 + 92 x16 + 46 x17
     <= 150
Bounds
      x1 >= 0
      x2 >= 0
      x3 >= 0
      x4 >= 0
      x5 >= 0
      x6 >= 0
      x7 >= 0
      x8 >= 0
      x9 >= 0
      x10 >= 0
      x11 >= 0
      x12 >= 0
      x13 >= 0
      x14 >= 0
      x15 >= 0
      x16 >= 0
      x17 >= 0
Generals
 x1  x2  x3  x4  x5  x6  x7  x8  x9  x10  x11  x12  x13  x14  x15  x16  x17 
End
